0000000000000000
0000000000000000
0001011111100000
0001111111110000
0001111111110000
0000000000110000
0000000000010000
0000100000010000
0001100000010000
0001100000010000
0001100000010000
0001100000011100
0001100000010000
0000000000000000
0000000000000000
0000000000000000
